2
100 3
56
3 1 1
5 1 1
6 1 2
8 1 1
10 1 1
13 1 3
14 1 3
15 1 1
16 1 1
17 1 3
19 1 1
22 1 2
25 1 1
27 1 3
28 1 1
29 1 3
33 1 1
34 1 2
36 1 2
37 1 2
38 1 3
39 1 1
43 1 5
44 1 1
45 1 1
49 1 5
50 1 1
52 1 2
53 1 3
54 1 1
55 1 2
56 1 1
59 1 1
62 1 4
64 1 2
65 1 1
67 1 1
69 1 1
70 1 1
71 1 3
72 1 1
73 1 2
75 1 1
76 1 2
78 1 1
80 1 2
84 1 1
85 1 1
86 1 1
87 1 1
89 1 2
91 1 1
92 1 1
93 1 1
94 1 3
98 1 4
